LAMMPS (22 Jul 2025 - Update 5)
OMP_NUM_THREADS environment is not set. Defaulting to 1 thread.
  using 1 OpenMP thread(s) per MPI task
# AIREBO polyethelene benchmark

units               metal
atom_style          atomic

read_data           data.airebo
Reading data file ...
  orthogonal box = (-2.1 -2.1 0) to (2.1 2.1 25.579)
  1 by 1 by 1 MPI processor grid
  reading atoms ...
  60 atoms
  read_data CPU = 0.001 seconds

replicate           17 16 2
Replication is creating a 17x16x2 = 544 times larger system...
  orthogonal box = (-2.1 -2.1 0) to (69.3 65.1 51.158)
  1 by 1 by 1 MPI processor grid
  32640 atoms
  replicate CPU = 0.002 seconds

neighbor            0.5 bin
neigh_modify        delay 5 every 1

pair_style          airebo 3.0 1 1
pair_coeff          * * CH.airebo C H
ERROR on proc 0: cannot open airebo potential file CH.airebo: No such file or directory (src/potential_file_reader.cpp:58)
