# Simulación de Metano con Geometría Tetraédrica (aproximada)

units           real
atom_style      full
boundary        p p p
log             methane.log

# ======================
# 1. Definición de Estilos
# ======================
bond_style      harmonic
angle_style     harmonic
dihedral_style  none
improper_style  none
pair_style      lj/cut 10.0
special_bonds   lj/coul 0 0 0

# ======================
# 2. Cargar Archivo de Datos
# ======================
read_data       methane_final.data

# ======================
# 3. Parámetros de Fuerza
# ======================
bond_coeff      1 450.0 1.09      # C-H (k=450 kcal/mol/Å², r0=1.09Å)
angle_coeff     1 120.0 109.5     # H-C-H (k=120 kcal/mol/rad², θ0=109.47°)

pair_coeff      1 1 0.1094 3.40   # C-C (ε=0.1094 kcal/mol, σ=3.40Å)
pair_coeff      1 2 0.0380 2.42   # C-H (ε=0.0380 kcal/mol, σ=2.42Å)
pair_coeff      2 2 0.0100 2.50   # H-H (ε=0.0100 kcal/mol, σ=2.50Å)

# ======================
# 4. Configuración de Simulación
# ======================
neighbor        2.0 bin
neigh_modify    delay 0 every 1 check yes
timestep        0.5               # 0.5 fs para mayor estabilidad

# ======================
# 5. Minimización Estricta
# ======================
min_style       fire
min_modify      integrator verlet
minimize        1.0e-10 1.0e-10 100000 1000000

# ======================
# 6. Dinámica Molecular
# ======================
velocity        all create 300.0 12345 rot yes dist gaussian
fix             nvt all nvt temp 300 300 100.0

thermo_style    custom step temp pe ke etotal press density
thermo          100

dump            traj all xyz 1000 traj_methane.xyz
dump_modify     traj element C H

# ======================
# 7. Producción
# ======================
run             10000             # 5 ps de simulación


# Guardar estructura final
write_data      methane_final_restart.data
