units real
atom_style full
boundary p p p

read_data csh_pe_structure.data

pair_style lj/cut 10.0
pair_coeff * * 0.1 3.5

bond_style harmonic
angle_style harmonic

fix 1 all nvt temp 300.0 300.0 100.0

thermo 100
dump 1 all xyz 100 output.xyz

run 10000
